TYPE : Vertex Cover
DIMENSION: 31
EDGE_DATA_SECTION:
0 10
1 12
1 13
1 27
2 5
2 8
2 11
2 12
2 17
2 30
3 5
3 7
3 8
3 15
4 7
4 11
4 14
4 19
4 25
5 10
5 12
5 14
5 23
5 30
6 15
6 18
6 21
6 24
7 16
7 17
7 18
7 21
7 28
7 29
8 11
8 13
8 18
8 22
8 27
9 20
9 21
9 28
10 15
10 22
10 24
11 14
11 17
11 18
11 20
12 18
12 25
13 17
13 30
14 17
14 22
14 23
15 30
16 17
16 19
16 22
16 24
17 18
17 19
18 20
18 24
18 28
19 22
20 26
21 30
22 26
22 30
23 25
23 27
24 30
25 28
25 29
27 29
-1
VERTEX_DEGREE:
1.0 3.0 6.0 4.0 5.0 7.0 4.0 8.0 7.0 3.0 5.0 7.0 5.0 4.0 6.0 4.0 5.0 8.0 9.0 4.0 4.0 4.0 7.0 4.0 5.0 5.0 2.0 4.0 4.0 3.0 7.0
VERTEX_COVER:
1 3 4 5 6 8 10 11 12 16 17 18 20 21 22 23 28 29 30
EOF
